(set-logic QF_BV)
(declare-fun _substvar_238_ () (_ BitVec 95))
(declare-fun _substvar_290_ () Bool)
(declare-fun _substvar_221_ () (_ BitVec 95))
(declare-fun _substvar_204_ () (_ BitVec 95))
(declare-fun _substvar_90_ () (_ BitVec 95))
(assert (and true true true true true true true true true true true true true true true true true true true true true true true true true true true true true true true true true true true true true true true true true true true true true true true true true true true true true true true true true true true true true true true true true true true true true true true true true true true true true true true true true true true true true true true true true true true true true true true true true true true true true true true true true true true true true true true true true true true true true true true true true true true true true true true true true true true true true true true true true true true true true true true true true true true true true true true true true true true true true true true true true true true true true true true true true true true true true true true true true true true true true true true true true true true true true true true true true true true true true true true true true true true true true true true true true true true true true true true true true true true true (= _substvar_90_ (_ bv0 95)) (ite _substvar_290_ (= _substvar_204_ (_ bv0 95)) (= _substvar_204_ (concat ((_ extract 93 0) _substvar_90_) (_ bv0 1)))) (= _substvar_238_ (concat ((_ extract 93 0) _substvar_204_) (bvxor ((_ extract 94 94) _substvar_204_) ((_ extract 83 83) _substvar_204_)))) (= _substvar_221_ (concat ((_ extract 93 0) _substvar_238_) (_ bv0 1))) true true true true true true true true true true true true true true true true true true true true true true true true true true true true true true true true true true true true true true true true true true true true true true true true true true true true true true true true true true true true true true true true true true true true true true true true true true true true true true true true true true true true true true true true true true true true true true true true true true true true true true true true true true true true true true true true true true true true true true true true true true true true true true true true true true true true true true true true true true true true true true true true true true true true true true true true true true true true true true true true true true true true true true true true true true true true true true true true true true true true true true true true true true true true true true true true true true true true true true true true true true true true true true true true true true true true true true true true true true true true true true true true true true true true true true true true true true (= (= (_ bv0 95) _substvar_221_) false)))
(check-sat)
(exit)
